words_hard_train/2217.qaiger
aag 85 16 0 1 69
2
4
8
12
16
24
36
50
54
68
88
96
114
122
128
130
170
6 3 5
10 6 9
14 10 13
18 15 16
20 14 17
22 19 21
26 23 25
28 22 24
30 27 29
32 11 12
34 33 15
38 34 36
40 30 39
42 31 38
44 41 43
46 2 4
48 47 7
52 49 51
56 54 2
58 48 50
60 57 59
62 53 61
64 7 8
66 65 11
70 67 69
72 66 68
74 71 73
76 62 74
78 77 73
80 35 37
82 81 39
84 79 82
86 78 83
90 21 88
92 20 89
94 91 93
98 94 96
100 98 28
102 87 101
104 85 102
106 45 104
108 99 29
110 95 97
112 109 111
116 93 114
118 92 115
120 117 119
124 121 123
126 112 125
132 128 130
134 129 131
136 133 135
138 136 118
140 137 119
142 139 141
144 120 122
146 142 145
148 127 146
150 106 149
152 125 143
154 53 153
156 110 29
158 157 147
160 154 159
162 60 75
164 55 3
166 162 165
168 160 166
170 150 168
i0 1 x2[0]
i1 1 x2[1]
i2 1 x2[2]
i3 1 x2[3]
i4 1 x2[4]
i5 2 y2[3]
i6 2 y2[4]
i7 2 y2[6]
i8 2 y2[7]
i9 2 y2[5]
i10 1 x2[5]
i11 2 y2[2]
i12 1 x2[6]
i13 2 y2[1]
i14 2 y2[0]
i15 1 x2[7]
o0 bool[0]
c
simplified
  ==
    add
      1
      -102
    subtract
      reverse
        2 y2
      1 x2
