words_hard_train/2217.qaiger.qdimacs
p cnf 85 208
a 1 2 65 4 6 8 44 57 0
e 3 5 7 9 10 11 12 13 14 15 16 17 18 19 20 21 22 23 24 25 26 27 28 29 30 31 32 33 34 35 36 37 38 39 40 41 42 43 45 46 47 48 49 50 51 52 53 54 55 56 58 59 60 61 62 63 64 66 67 68 69 70 71 72 73 74 75 76 77 78 79 80 81 82 83 84 85 0
1 2 3 0
-1 -3 0
-2 -3 0
-3 4 5 0
3 -5 0
-4 -5 0
-5 6 7 0
5 -7 0
-6 -7 0
7 -8 9 0
-7 -9 0
8 -9 0
-7 8 10 0
7 -10 0
-8 -10 0
9 10 11 0
-9 -11 0
-10 -11 0
11 12 13 0
-11 -13 0
-12 -13 0
-11 -12 14 0
11 -14 0
12 -14 0
13 14 15 0
-13 -15 0
-14 -15 0
5 -6 16 0
-5 -16 0
6 -16 0
16 7 17 0
-16 -17 0
-7 -17 0
-17 -18 19 0
17 -19 0
18 -19 0
-15 19 20 0
15 -20 0
-19 -20 0
15 -19 21 0
-15 -21 0
19 -21 0
20 21 22 0
-20 -22 0
-21 -22 0
-1 -2 23 0
1 -23 0
2 -23 0
23 3 24 0
-23 -24 0
-3 -24 0
24 25 26 0
-24 -26 0
-25 -26 0
-27 -1 28 0
27 -28 0
1 -28 0
-24 -25 29 0
24 -29 0
25 -29 0
28 29 30 0
-28 -30 0
-29 -30 0
26 30 31 0
-26 -31 0
-30 -31 0
3 -4 32 0
-3 -32 0
4 -32 0
32 5 33 0
-32 -33 0
-5 -33 0
33 34 35 0
-33 -35 0
-34 -35 0
-33 -34 36 0
33 -36 0
34 -36 0
35 36 37 0
-35 -37 0
-36 -37 0
-31 -37 38 0
31 -38 0
37 -38 0
38 36 39 0
-38 -39 0
-36 -39 0
17 18 40 0
-17 -40 0
-18 -40 0
40 19 41 0
-40 -41 0
-19 -41 0
39 -41 42 0
-39 -42 0
41 -42 0
-39 41 43 0
39 -43 0
-41 -43 0
10 -44 45 0
-10 -45 0
44 -45 0
-10 44 46 0
10 -46 0
-44 -46 0
45 46 47 0
-45 -47 0
-46 -47 0
-47 -48 49 0
47 -49 0
48 -49 0
-49 -14 50 0
49 -50 0
14 -50 0
43 50 51 0
-43 -51 0
-50 -51 0
42 -51 52 0
-42 -52 0
51 -52 0
22 -52 53 0
-22 -53 0
52 -53 0
49 14 54 0
-49 -54 0
-14 -54 0
47 48 55 0
-47 -55 0
-48 -55 0
54 55 56 0
-54 -56 0
-55 -56 0
46 -57 58 0
-46 -58 0
57 -58 0
-46 57 59 0
46 -59 0
-57 -59 0
58 59 60 0
-58 -60 0
-59 -60 0
60 61 62 0
-60 -62 0
-61 -62 0
-56 62 63 0
56 -63 0
-62 -63 0
-64 -65 66 0
64 -66 0
65 -66 0
64 65 67 0
-64 -67 0
-65 -67 0
66 67 68 0
-66 -68 0
-67 -68 0
-68 -59 69 0
68 -69 0
59 -69 0
68 59 70 0
-68 -70 0
-59 -70 0
69 70 71 0
-69 -71 0
-70 -71 0
-60 -61 72 0
60 -72 0
61 -72 0
-71 72 73 0
71 -73 0
-72 -73 0
63 -73 74 0
-63 -74 0
73 -74 0
-53 74 75 0
53 -75 0
-74 -75 0
62 71 76 0
-62 -76 0
-71 -76 0
26 76 77 0
-26 -77 0
-76 -77 0
-55 14 78 0
55 -78 0
-14 -78 0
78 73 79 0
-78 -79 0
-73 -79 0
-77 79 80 0
77 -80 0
-79 -80 0
-30 37 81 0
30 -81 0
-37 -81 0
27 1 82 0
-27 -82 0
-1 -82 0
-81 82 83 0
81 -83 0
-82 -83 0
-80 -83 84 0
80 -84 0
83 -84 0
-75 -84 85 0
75 -85 0
84 -85 0
85 0
